Route #1: 25 11 14 12 4 3
Route #2: 28 5 16 40
Route #3: 32 6 36 9
Route #4: 24 13 15 8 45
Route #5: 42 2 49 43 26
Route #6: 27 22 37 30 44 38 47
Route #7: 34 19 7 41 48
Route #8: 20 50 33 31 46 1 29
Route #9: 18 21 35 39 10 23 17
Cost 10512786.000000